&CONTROL
    title        = 'Si'
    calculation  = 'scf'
    restart_mode = 'from_scratch'
    prefix       = 'Si'
    tprnfor      = .true.
    disk_io      =  'none'
/

&SYSTEM
    ibrav        = 1
    A            = 10.93745
    nat          = 64
    ntyp         = 1
    ecutwfc      = 30
    ecutrho      = 120
    ecutfock     = 120
    occupations  ='smearing'
    smearing     ='gaussian',
    degauss      = 0.01
    input_dft    = 'hse'
    nqx1         = 1
    nqx2         = 1
    nqx3         = 1
    exx_fraction = 0.25
/

&ELECTRONS
    diagonalization  = 'david'
    conv_thr         = 1.0D-8
    electron_maxstep = 30
    adaptive_thr     = .true.
/

ATOMIC_SPECIES
Si  27.976  Si.pbe-rrkj.UPF

ATOMIC_POSITIONS crystal
Si           0.1250000000       0.3750000000       0.1250000000 
Si           0.0000000000       0.0000000000       0.2500000000 
Si           0.1250000000       0.1250000000       0.3750000000 
Si           0.0000000000       0.2500000000       0.0000000000 
Si           0.3750000000       0.3750000000       0.3750000000 
Si           0.2500000000       0.0000000000       0.0000000000 
Si           0.3750000000       0.1250000000       0.1250000000 
Si           0.2500000000       0.2500000000       0.2500000000 
Si           0.1250000000       0.3750000000       0.6250000000 
Si           0.0000000000       0.0000000000       0.7500000000 
Si           0.1250000000       0.1250000000       0.8750000000 
Si           0.0000000000       0.2500000000       0.5000000000 
Si           0.3750000000       0.3750000000       0.8750000000 
Si           0.2500000000       0.0000000000       0.5000000000 
Si           0.3750000000       0.1250000000       0.6250000000 
Si           0.2500000000       0.2500000000       0.7500000000 
Si           0.1250000000       0.8750000000       0.1250000000 
Si           0.0000000000       0.5000000000       0.2500000000 
Si           0.1250000000       0.6250000000       0.3750000000 
Si           0.0000000000       0.7500000000       0.0000000000 
Si           0.3750000000       0.8750000000       0.3750000000 
Si           0.2500000000       0.5000000000       0.0000000000 
Si           0.3750000000       0.6250000000       0.1250000000 
Si           0.2500000000       0.7500000000       0.2500000000 
Si           0.1250000000       0.8750000000       0.6250000000 
Si           0.0000000000       0.5000000000       0.7500000000 
Si           0.1250000000       0.6250000000       0.8750000000 
Si           0.0000000000       0.7500000000       0.5000000000 
Si           0.3750000000       0.8750000000       0.8750000000 
Si           0.2500000000       0.5000000000       0.5000000000 
Si           0.3750000000       0.6250000000       0.6250000000 
Si           0.2500000000       0.7500000000       0.7500000000 
Si           0.6250000000       0.3750000000       0.1250000000 
Si           0.5000000000       0.0000000000       0.2500000000 
Si           0.6250000000       0.1250000000       0.3750000000 
Si           0.5000000000       0.2500000000       0.0000000000 
Si           0.8750000000       0.3750000000       0.3750000000 
Si           0.7500000000       0.0000000000       0.0000000000 
Si           0.8750000000       0.1250000000       0.1250000000 
Si           0.7500000000       0.2500000000       0.2500000000 
Si           0.6250000000       0.3750000000       0.6250000000 
Si           0.5000000000       0.0000000000       0.7500000000 
Si           0.6250000000       0.1250000000       0.8750000000 
Si           0.5000000000       0.2500000000       0.5000000000 
Si           0.8750000000       0.3750000000       0.8750000000 
Si           0.7500000000       0.0000000000       0.5000000000 
Si           0.8750000000       0.1250000000       0.6250000000 
Si           0.7500000000       0.2500000000       0.7500000000 
Si           0.6250000000       0.8750000000       0.1250000000 
Si           0.5000000000       0.5000000000       0.2500000000 
Si           0.6250000000       0.6250000000       0.3750000000 
Si           0.5000000000       0.7500000000       0.0000000000 
Si           0.8750000000       0.8750000000       0.3750000000 
Si           0.7500000000       0.5000000000       0.0000000000 
Si           0.8750000000       0.6250000000       0.1250000000 
Si           0.7500000000       0.7500000000       0.2500000000 
Si           0.6250000000       0.8750000000       0.6250000000 
Si           0.5000000000       0.5000000000       0.7500000000 
Si           0.6250000000       0.6250000000       0.8750000000 
Si           0.5000000000       0.7500000000       0.5000000000 
Si           0.8750000000       0.8750000000       0.8750000000 
Si           0.7500000000       0.5000000000       0.5000000000 
Si           0.8750000000       0.6250000000       0.6250000000 
Si           0.7500000000       0.7500000000       0.7500000000 

K_POINTS automatic 
2 2 2 0 0 0
