BEGIN

BEGIN_PATH_INPUT
&PATH
    restart_mode   = 'from_scratch'
    string_method  = 'neb'
    nstep_path     = 20
    ds             = 3.D0
    opt_scheme     = "broyden"
    num_of_images  = 16
    k_max          = 0.2D0
    k_min          = 0.2D0
    CI_scheme      = "auto"
    path_thr       = 0.1D0
    first_last_opt = .true.
/
END_PATH_INPUT

BEGIN_ENGINE_INPUT
&CONTROL
    prefix     = 'neb'
    disk_io    = 'none'
/

&SYSTEM
    ibrav       = 1
    A           = 10.93745
    nat         = 63
    ntyp        = 1
    ecutwfc     = 40
    occupations ='smearing'
    smearing    ='gaussian',
    degauss     = 0.001
/

&ELECTRONS
    diagonalization  = 'david'
    conv_thr         = 1.0D-6
    electron_maxstep = 30
/

ATOMIC_SPECIES
Si  27.976  Si.pbe-rrkj.UPF

BEGIN_POSITIONS 
FIRST_IMAGE
ATOMIC_POSITIONS (crystal)
   Si      0.1248224453      0.3745007883      0.1251775547
   Si      0.1171790730      0.1171790730      0.3671790730
   Si     -0.0002484962      0.2467121600      0.0032878400
   Si      0.3739288881      0.3739288881      0.3750662780
   Si      0.2467121600     -0.0002484962      0.0032878400
   Si      0.3745007883      0.1248224453      0.1251775547
   Si      0.2467121600      0.2467121600      0.2502484962
   Si      0.1250662780      0.3739288881      0.6239288881
   Si      0.0000000000      0.0000000000      0.7500000000
   Si      0.1248224453      0.1248224453      0.8754992117
   Si      0.0002484962      0.2467121600      0.4967121600
   Si      0.3749655791      0.3749655791      0.8750344209
   Si      0.2467121600      0.0002484962      0.4967121600
   Si      0.3739288881      0.1250662780      0.6239288881
   Si      0.2496247495      0.2496247495      0.7498549091
   Si      0.1171790730      0.8828209270      0.1328209270
   Si      0.0000000000      0.5000000000      0.2500000000
   Si      0.1248224453      0.6254992117      0.3748224453
   Si      0.0002484962      0.7532878400      0.0032878400
   Si      0.3745007883      0.8751775547      0.3748224453
   Si      0.2496247495      0.5001450909      0.0003752505
   Si      0.3739288881      0.6260711119      0.1249337220
   Si      0.2467121600      0.7532878400      0.2497515038
   Si      0.1248224453      0.8751775547      0.6245007883
   Si      0.0000000000      0.5000000000      0.7500000000
   Si      0.1250662780      0.6260711119      0.8760711119
   Si     -0.0002484962      0.7532878400      0.4967121600
   Si      0.3739288881      0.8749337220      0.8760711119
   Si      0.2496247495      0.4998549091      0.4996247495
   Si      0.3749655791      0.6250344209      0.6249655791
   Si      0.2496247495      0.7503752505      0.7501450909
   Si      0.6260711119      0.3739288881      0.1249337220
   Si      0.5000000000      0.0000000000      0.2500000000
   Si      0.6254992117      0.1248224453      0.3748224453
   Si      0.5001450909      0.2496247495      0.0003752505
   Si      0.8751775547      0.3745007883      0.3748224453
   Si      0.7532878400      0.0002484962      0.0032878400
   Si      0.8828209270      0.1171790730      0.1328209270
   Si      0.7532878400      0.2467121600      0.2497515038
   Si      0.6250344209      0.3749655791      0.6249655791
   Si      0.5000000000      0.0000000000      0.7500000000
   Si      0.6260711119      0.1250662780      0.8760711119
   Si      0.4998549091      0.2496247495      0.4996247495
   Si      0.8749337220      0.3739288881      0.8760711119
   Si      0.7532878400     -0.0002484962      0.4967121600
   Si      0.8751775547      0.1248224453      0.6245007883
   Si      0.7503752505      0.2496247495      0.7501450909
   Si      0.6254992117      0.8751775547      0.1251775547
   Si      0.5000000000      0.5000000000      0.2500000000
   Si      0.6260711119      0.6260711119      0.3750662780
   Si      0.4998549091      0.7503752505      0.0003752505
   Si      0.8828209270      0.8828209270      0.3671790730
   Si      0.7503752505      0.4998549091      0.0003752505
   Si      0.8751775547      0.6254992117      0.1251775547
   Si      0.7532878400      0.7532878400      0.2502484962
   Si      0.6260711119      0.8749337220      0.6239288881
   Si      0.5000000000      0.5000000000      0.7500000000
   Si      0.6250344209      0.6250344209      0.8750344209
   Si      0.5001450909      0.7503752505      0.4996247495
   Si      0.8751775547      0.8751775547      0.8754992117
   Si      0.7503752505      0.5001450909      0.4996247495
   Si      0.8749337220      0.6260711119      0.6239288881
   Si      0.7503752505      0.7503752505      0.7498549091
INTERMEDIATE_IMAGE
ATOMIC_POSITIONS (crystal)
   Si      0.1247476539      0.3743336050      0.1244901103
   Si      0.1034375396      0.1034375396      0.3534375396
   Si     -0.0003189428      0.2482100884      0.0015633086
   Si      0.3702542186      0.3702542186      0.3732138933
   Si      0.2482100884     -0.0003189428      0.0015633086
   Si      0.3743336050      0.1247476539      0.1244901103
   Si      0.2413349968      0.2413349968      0.2493510177
   Si      0.1232138933      0.3702542186      0.6202542186
   Si     -0.0002182163     -0.0002182163      0.7495415294
   Si      0.1246115360      0.1246115360      0.8748610422
   Si     -0.0006489823      0.2413349968      0.4913349968
   Si      0.3741612670      0.3741612670      0.8734932319
   Si      0.2413349968     -0.0006489823      0.4913349968
   Si      0.3702542186      0.1232138933      0.6202542186
   Si      0.2487302596      0.2487302596      0.7479232911
   Si      0.1215047279      0.8832136118      0.1332136118
   Si     -0.0002182163      0.4995415294      0.2497817837
   Si      0.1246115360      0.6248610422      0.3746115360
   Si      0.0013972090      0.7542549314      0.0042549314
   Si      0.3743336050      0.8744901103      0.3747476539
   Si      0.2497316664      0.4996766300     -0.0005060084
   Si      0.3745695400      0.6251307058      0.1239604870
   Si      0.2482100884      0.7515633086      0.2496810572
   Si      0.1247476539      0.8744901103      0.6243336050
   Si      0.0000245524      0.4982197012      0.7482197012
   Si      0.1245802171      0.6253514540      0.8753514540
   Si     -0.0003189428      0.7515633086      0.4982100884
   Si      0.3745695400      0.8739604870      0.8751307058
   Si      0.2487302596      0.4979232911      0.4987302596
   Si      0.3741612670      0.6234932319      0.6241612670
   Si      0.2497316664      0.7494939916      0.7496766300
   Si      0.6251307058      0.3745695400      0.1239604870
   Si      0.4995415294     -0.0002182163      0.2497817837
   Si      0.6248610422      0.1246115360      0.3746115360
   Si      0.4996766300      0.2497316664     -0.0005060084
   Si      0.8744901103      0.3743336050      0.3747476539
   Si      0.7542549314      0.0013972090      0.0042549314
   Si      0.8832136118      0.1215047279      0.1332136118
   Si      0.7515633086      0.2482100884      0.2496810572
   Si      0.6234932319      0.3741612670      0.6241612670
   Si      0.4982197012      0.0000245524      0.7482197012
   Si      0.6253514540      0.1245802171      0.8753514540
   Si      0.4979232911      0.2487302596      0.4987302596
   Si      0.8739604870      0.3745695400      0.8751307058
   Si      0.7515633086     -0.0003189428      0.4982100884
   Si      0.8744901103      0.1247476539      0.6243336050
   Si      0.7494939916      0.2497316664      0.7496766300
   Si      0.6264826553      0.8757371042      0.1257371042
   Si      0.4982197012      0.4982197012      0.2500245524
   Si      0.6253514540      0.6253514540      0.3745802171
   Si      0.5007678889      0.7506750298      0.0006750298
   Si      0.8832136118      0.8832136118      0.3715047279
   Si      0.7506750298      0.5007678889      0.0006750298
   Si      0.8757371042      0.6264826553      0.1257371042
   Si      0.7542549314      0.7542549314      0.2513972090
   Si      0.6251307058      0.8739604870      0.6245695400
   Si      0.4997639206      0.4997639206      0.7497639206
   Si      0.6249879532      0.6249879532      0.8749879532
   Si      0.4996766300      0.7494939916      0.4997316664
   Si      0.8757371042      0.8757371042      0.8764826553
   Si      0.7494939916      0.4996766300      0.4997316664
   Si      0.8739604870      0.6251307058      0.6245695400
   Si      0.7506750298      0.7506750298      0.7507678889
INTERMEDIATE_IMAGE
ATOMIC_POSITIONS (crystal)
   Si      0.1249643497      0.3744171115      0.1242878231
   Si      0.0885072029      0.0885072029      0.3385072029
   Si     -0.0001635056      0.2495169589      0.0007876158
   Si      0.3676391557      0.3676391557      0.3720696440
   Si      0.2495169589     -0.0001635056      0.0007876158
   Si      0.3744171115      0.1249643497      0.1242878231
   Si      0.2367031790      0.2367031790      0.2488113538
   Si      0.1220696440      0.3676391557      0.6176391557
   Si     -0.0001401566     -0.0001401566      0.7495422439
   Si      0.1246920166      0.1246920166      0.8748026634
   Si     -0.0011886462      0.2367031790      0.4867031790
   Si      0.3737624479      0.3737624479      0.8726353537
   Si      0.2367031790     -0.0011886462      0.4867031790
   Si      0.3676391557      0.1220696440      0.6176391557
   Si      0.2482581632      0.2482581632      0.7467590479
   Si      0.1243599478      0.8864608098      0.1364608098
   Si     -0.0001401566      0.4995422439      0.2498598434
   Si      0.1246920166      0.6248026634      0.3746920166
   Si      0.0026985292      0.7563954369      0.0063954369
   Si      0.3744171115      0.8742878231      0.3749643497
   Si      0.2502387649      0.4996764520     -0.0007585957
   Si      0.3753332618      0.6248811234      0.1236521239
   Si      0.2495169589      0.7507876158      0.2498364944
   Si      0.1249643497      0.8742878231      0.6244171115
   Si      0.0003822093      0.4975684828      0.7475684828
   Si      0.1245307576      0.6258129533      0.8758129533
   Si     -0.0001635056      0.7507876158      0.4995169589
   Si      0.3753332618      0.8736521239      0.8748811234
   Si      0.2482581632      0.4967590479      0.4982581632
   Si      0.3737624479      0.6226353537      0.6237624479
   Si      0.2502387649      0.7492414043      0.7496764520
   Si      0.6248811234      0.3753332618      0.1236521239
   Si      0.4995422439     -0.0001401566      0.2498598434
   Si      0.6248026634      0.1246920166      0.3746920166
   Si      0.4996764520      0.2502387649     -0.0007585957
   Si      0.8742878231      0.3744171115      0.3749643497
   Si      0.7563954369      0.0026985292      0.0063954369
   Si      0.8864608098      0.1243599478      0.1364608098
   Si      0.7507876158      0.2495169589      0.2498364944
   Si      0.6226353537      0.3737624479      0.6237624479
   Si      0.4975684828      0.0003822093      0.7475684828
   Si      0.6258129533      0.1245307576      0.8758129533
   Si      0.4967590479      0.2482581632      0.4982581632
   Si      0.8736521239      0.3753332618      0.8748811234
   Si      0.7507876158     -0.0001635056      0.4995169589
   Si      0.8742878231      0.1249643497      0.6244171115
   Si      0.7492414043      0.2502387649      0.7496764520
   Si      0.6277475719      0.8764526454      0.1264526454
   Si      0.4975684828      0.4975684828      0.2503822093
   Si      0.6258129533      0.6258129533      0.3745307576
   Si      0.5018213561      0.7511573124      0.0011573124
   Si      0.8864608098      0.8864608098      0.3743599478
   Si      0.7511573124      0.5018213561      0.0011573124
   Si      0.8764526454      0.6277475719      0.1264526454
   Si      0.7563954369      0.7563954369      0.2526985292
   Si      0.6248811234      0.8736521239      0.6253332618
   Si      0.4997336826      0.4997336826      0.7497336826
   Si      0.6250988865      0.6250988865      0.8750988865
   Si      0.4996764520      0.7492414043      0.5002387649
   Si      0.8764526454      0.8764526454      0.8777475719
   Si      0.7492414043      0.4996764520      0.5002387649
   Si      0.8736521239      0.6248811234      0.6253332618
   Si      0.7511573124      0.7511573124      0.7518213561
INTERMEDIATE_IMAGE
ATOMIC_POSITIONS (crystal)
   Si      0.1251369916      0.3743978753      0.1244689305
   Si      0.0719145295      0.0719145295      0.3219145295
   Si     -0.0000233660      0.2502929698      0.0006420323
   Si      0.3664465782      0.3664465782      0.3715872281
   Si      0.2502929698     -0.0000233660      0.0006420323
   Si      0.3743978753      0.1251369916      0.1244689305
   Si      0.2341206149      0.2341206149      0.2489136715
   Si      0.1215872281      0.3664465782      0.6164465782
   Si      0.0000079154      0.0000079154      0.7497639009
   Si      0.1248784815      0.1248784815      0.8750001994
   Si     -0.0010863285      0.2341206149      0.4841206149
   Si      0.3735921537      0.3735921537      0.8724068946
   Si      0.2341206149     -0.0010863285      0.4841206149
   Si      0.3664465782      0.1215872281      0.6164465782
   Si      0.2481499485      0.2481499485      0.7463424825
   Si      0.1256302369      0.8898719942      0.1398719942
   Si      0.0000079154      0.4997639009      0.2500079154
   Si      0.1248784815      0.6250001994      0.3748784815
   Si      0.0034046604      0.7581306129      0.0081306129
   Si      0.3743978753      0.8744689305      0.3751369916
   Si      0.2507889599      0.4998765564     -0.0007293330
   Si      0.3757093005      0.6249707303      0.1238210984
   Si      0.2502929698      0.7506420323      0.2499766340
   Si      0.1251369916      0.8744689305      0.6243978753
   Si      0.0006368534      0.4977157210      0.7477157210
   Si      0.1245214007      0.6266259775      0.8766259775
   Si     -0.0000233660      0.7506420323      0.5002929698
   Si      0.3757093005      0.8738210984      0.8749707303
   Si      0.2481499485      0.4963424825      0.4981499485
   Si      0.3735921537      0.6224068946      0.6235921537
   Si      0.2507889599      0.7492706670      0.7498765564
   Si      0.6249707303      0.3757093005      0.1238210984
   Si      0.4997639009      0.0000079154      0.2500079154
   Si      0.6250001994      0.1248784815      0.3748784815
   Si      0.4998765564      0.2507889599     -0.0007293330
   Si      0.8744689305      0.3743978753      0.3751369916
   Si      0.7581306129      0.0034046604      0.0081306129
   Si      0.8898719942      0.1256302369      0.1398719942
   Si      0.7506420323      0.2502929698      0.2499766340
   Si      0.6224068946      0.3735921537      0.6235921537
   Si      0.4977157210      0.0006368534      0.7477157210
   Si      0.6266259775      0.1245214007      0.8766259775
   Si      0.4963424825      0.2481499485      0.4981499485
   Si      0.8738210984      0.3757093005      0.8749707303
   Si      0.7506420323     -0.0000233660      0.5002929698
   Si      0.8744689305      0.1251369916      0.6243978753
   Si      0.7492706670      0.2507889599      0.7498765564
   Si      0.6285166354      0.8768697304      0.1268697304
   Si      0.4977157210      0.4977157210      0.2506368534
   Si      0.6266259775      0.6266259775      0.3745214007
   Si      0.5024609105      0.7514494939      0.0014494939
   Si      0.8898719942      0.8898719942      0.3756302369
   Si      0.7514494939      0.5024609105      0.0014494939
   Si      0.8768697304      0.6285166354      0.1268697304
   Si      0.7581306129      0.7581306129      0.2534046604
   Si      0.6249707303      0.8738210984      0.6257093005
   Si      0.4998158734      0.4998158734      0.7498158734
   Si      0.6251862125      0.6251862125      0.8751862125
   Si      0.4998765564      0.7492706670      0.5007889599
   Si      0.8768697304      0.8768697304      0.8785166354
   Si      0.7492706670      0.4998765564      0.5007889599
   Si      0.8738210984      0.6249707303      0.6257093005
   Si      0.7514494939      0.7514494939      0.7524609105
INTERMEDIATE_IMAGE
ATOMIC_POSITIONS (crystal)
   Si      0.1251199799      0.3743872979      0.1248165675
   Si      0.0547999329      0.0547999329      0.3047999329
   Si     -0.0000377537      0.2505896074      0.0006895213
   Si      0.3669195124      0.3669195124      0.3717405475
   Si      0.2505896074     -0.0000377537      0.0006895213
   Si      0.3743872979      0.1251199799      0.1248165675
   Si      0.2350603538      0.2350603538      0.2495265901
   Si      0.1217405475      0.3669195124      0.6169195124
   Si      0.0001925556      0.0001925556      0.7500363812
   Si      0.1250510963      0.1250510963      0.8752765321
   Si     -0.0004734099      0.2350603538      0.4850603538
   Si      0.3736417565      0.3736417565      0.8726631043
   Si      0.2350603538     -0.0004734099      0.4850603538
   Si      0.3669195124      0.1217405475      0.6169195124
   Si      0.2482384709      0.2482384709      0.7465882901
   Si      0.1261072251      0.8908224807      0.1408224807
   Si      0.0001925556      0.5000363812      0.2501925556
   Si      0.1250510963      0.6252765321      0.3750510963
   Si      0.0034205899      0.7585070522      0.0085070522
   Si      0.3743872979      0.8748165675      0.3751199799
   Si      0.2512237397      0.5000846203     -0.0005865254
   Si      0.3757879475      0.6251836403      0.1242983563
   Si      0.2505896074      0.7506895213      0.2499622463
   Si      0.1251199799      0.8748165675      0.6243872979
   Si      0.0005838028      0.4983885664      0.7483885664
   Si      0.1244910456      0.6272751443      0.8772751443
   Si     -0.0000377537      0.7506895213      0.5005896074
   Si      0.3757879475      0.8742983563      0.8751836403
   Si      0.2482384709      0.4965882901      0.4982384709
   Si      0.3736417565      0.6226631043      0.6236417565
   Si      0.2512237397      0.7494134746      0.7500846203
   Si      0.6251836403      0.3757879475      0.1242983563
   Si      0.5000363812      0.0001925556      0.2501925556
   Si      0.6252765321      0.1250510963      0.3750510963
   Si      0.5000846203      0.2512237397     -0.0005865254
   Si      0.8748165675      0.3743872979      0.3751199799
   Si      0.7585070522      0.0034205899      0.0085070522
   Si      0.8908224807      0.1261072251      0.1408224807
   Si      0.7506895213      0.2505896074      0.2499622463
   Si      0.6226631043      0.3736417565      0.6236417565
   Si      0.4983885664      0.0005838028      0.7483885664
   Si      0.6272751443      0.1244910456      0.8772751443
   Si      0.4965882901      0.2482384709      0.4982384709
   Si      0.8742983563      0.3757879475      0.8751836403
   Si      0.7506895213     -0.0000377537      0.5005896074
   Si      0.8748165675      0.1251199799      0.6243872979
   Si      0.7494134746      0.2512237397      0.7500846203
   Si      0.6286595558      0.8768983125      0.1268983125
   Si      0.4983885664      0.4983885664      0.2505838028
   Si      0.6272751443      0.6272751443      0.3744910456
   Si      0.5026245605      0.7514609700      0.0014609700
   Si      0.8908224807      0.8908224807      0.3761072251
   Si      0.7514609700      0.5026245605      0.0014609700
   Si      0.8768983125      0.6286595558      0.1268983125
   Si      0.7585070522      0.7585070522      0.2534205899
   Si      0.6251836403      0.8742983563      0.6257879475
   Si      0.4998861654      0.4998861654      0.7498861654
   Si      0.6252464009      0.6252464009      0.8752464009
   Si      0.5000846203      0.7494134746      0.5012237397
   Si      0.8768983125      0.8768983125      0.8786595558
   Si      0.7494134746      0.5000846203      0.5012237397
   Si      0.8742983563      0.6251836403      0.6257879475
   Si      0.7514609700      0.7514609700      0.7526245605
INTERMEDIATE_IMAGE
ATOMIC_POSITIONS (crystal)
   Si      0.1252007720      0.3741420210      0.1256050747
   Si      0.0369421352      0.0369421352      0.2869421352
   Si      0.0000837702      0.2506814119      0.0006916398
   Si      0.3686493988      0.3686493988      0.3724537654
   Si      0.2506814119      0.0000837702      0.0006916398
   Si      0.3741420210      0.1252007720      0.1256050747
   Si      0.2384516704      0.2384516704      0.2509178155
   Si      0.1224537654      0.3686493988      0.6186493988
   Si      0.0003438392      0.0003438392      0.7502073064
   Si      0.1251701994      0.1251701994      0.8754815487
   Si      0.0009178155      0.2384516704      0.4884516704
   Si      0.3739242704      0.3739242704      0.8733191286
   Si      0.2384516704      0.0009178155      0.4884516704
   Si      0.3686493988      0.1224537654      0.6186493988
   Si      0.2486373749      0.2486373749      0.7473904202
   Si      0.1260864614      0.8883462785      0.1383462785
   Si      0.0003438392      0.5002073064      0.2503438392
   Si      0.1251701994      0.6254815487      0.3751701994
   Si      0.0028652769      0.7573255720      0.0073255720
   Si      0.3741420210      0.8756050747      0.3752007720
   Si      0.2513395271      0.5001392121     -0.0002040279
   Si      0.3757374985      0.6253427068      0.1248291260
   Si      0.2506814119      0.7506916398      0.2500837702
   Si      0.1252007720      0.8756050747      0.6241420210
   Si      0.0005142410      0.4991924811      0.7491924811
   Si      0.1246703008      0.6274263628      0.8774263628
   Si      0.0000837702      0.7506916398      0.5006814119
   Si      0.3757374985      0.8748291260      0.8753427068
   Si      0.2486373749      0.4973904202      0.4986373749
   Si      0.3739242704      0.6233191286      0.6239242704
   Si      0.2513395271      0.7497959721      0.7501392121
   Si      0.6253427068      0.3757374985      0.1248291260
   Si      0.5002073064      0.0003438392      0.2503438392
   Si      0.6254815487      0.1251701994      0.3751701994
   Si      0.5001392121      0.2513395271     -0.0002040279
   Si      0.8756050747      0.3741420210      0.3752007720
   Si      0.7573255720      0.0028652769      0.0073255720
   Si      0.8883462785      0.1260864614      0.1383462785
   Si      0.7506916398      0.2506814119      0.2500837702
   Si      0.6233191286      0.3739242704      0.6239242704
   Si      0.4991924811      0.0005142410      0.7491924811
   Si      0.6274263628      0.1246703008      0.8774263628
   Si      0.4973904202      0.2486373749      0.4986373749
   Si      0.8748291260      0.3757374985      0.8753427068
   Si      0.7506916398      0.0000837702      0.5006814119
   Si      0.8756050747      0.1252007720      0.6241420210
   Si      0.7497959721      0.2513395271      0.7501392121
   Si      0.6281655890      0.8767117106      0.1267117106
   Si      0.4991924811      0.4991924811      0.2505142410
   Si      0.6274263628      0.6274263628      0.3746703008
   Si      0.5022972343      0.7512354029      0.0012354029
   Si      0.8883462785      0.8883462785      0.3760864614
   Si      0.7512354029      0.5022972343      0.0012354029
   Si      0.8767117106      0.6281655890      0.1267117106
   Si      0.7573255720      0.7573255720      0.2528652769
   Si      0.6253427068      0.8748291260      0.6257374985
   Si      0.4999482243      0.4999482243      0.7499482243
   Si      0.6252766374      0.6252766374      0.8752766374
   Si      0.5001392121      0.7497959721      0.5013395271
   Si      0.8767117106      0.8767117106      0.8781655890
   Si      0.7497959721      0.5001392121      0.5013395271
   Si      0.8748291260      0.6253427068      0.6257374985
   Si      0.7512354029      0.7512354029      0.7522972343
INTERMEDIATE_IMAGE
ATOMIC_POSITIONS (crystal)
   Si      0.1252964022      0.3733389779      0.1268309412
   Si      0.0217383662      0.0217383662      0.2717383662
   Si      0.0002417399      0.2504483377      0.0006983984
   Si      0.3706975997      0.3706975997      0.3736271464
   Si      0.2504483377      0.0002417399      0.0006983984
   Si      0.3733389779      0.1252964022      0.1268309412
   Si      0.2416290531      0.2416290531      0.2536689541
   Si      0.1236271464      0.3706975997      0.6206975997
   Si      0.0003764013      0.0003764013      0.7501051484
   Si      0.1251955706      0.1251955706      0.8754340240
   Si      0.0036689541      0.2416290531      0.4916290531
   Si      0.3743291492      0.3743291492      0.8742626248
   Si      0.2416290531      0.0036689541      0.4916290531
   Si      0.3706975997      0.1236271464      0.6206975997
   Si      0.2492734772      0.2492734772      0.7485447281
   Si      0.1255516126      0.8836732677      0.1336732677
   Si      0.0003764013      0.5001051484      0.2503764013
   Si      0.1251955706      0.6254340240      0.3751955706
   Si      0.0017234006      0.7547207356      0.0047207356
   Si      0.3733389779      0.8768309412      0.3752964022
   Si      0.2509856070      0.4998356367      0.0004606495
   Si      0.3754368694      0.6252905041      0.1252555874
   Si      0.2504483377      0.7506983984      0.2502417399
   Si      0.1252964022      0.8768309412      0.6233389779
   Si      0.0004031269      0.4995944110      0.7495944110
   Si      0.1249312497      0.6267435241      0.8767435241
   Si      0.0002417399      0.7506983984      0.5004483377
   Si      0.3754368694      0.8752555874      0.8752905041
   Si      0.2492734772      0.4985447281      0.4992734772
   Si      0.3743291492      0.6242626248      0.6243291492
   Si      0.2509856070      0.7504606495      0.7498356367
   Si      0.6252905041      0.3754368694      0.1252555874
   Si      0.5001051484      0.0003764013      0.2503764013
   Si      0.6254340240      0.1251955706      0.3751955706
   Si      0.4998356367      0.2509856070      0.0004606495
   Si      0.8768309412      0.3733389779      0.3752964022
   Si      0.7547207356      0.0017234006      0.0047207356
   Si      0.8836732677      0.1255516126      0.1336732677
   Si      0.7506983984      0.2504483377      0.2502417399
   Si      0.6242626248      0.3743291492      0.6243291492
   Si      0.4995944110      0.0004031269      0.7495944110
   Si      0.6267435241      0.1249312497      0.8767435241
   Si      0.4985447281      0.2492734772      0.4992734772
   Si      0.8752555874      0.3754368694      0.8752905041
   Si      0.7506983984      0.0002417399      0.5004483377
   Si      0.8768309412      0.1252964022      0.6233389779
   Si      0.7504606495      0.2509856070      0.7498356367
   Si      0.6269953097      0.8762161610      0.1262161610
   Si      0.4995944110      0.4995944110      0.2504031269
   Si      0.6267435241      0.6267435241      0.3749312497
   Si      0.5014241998      0.7508020597      0.0008020597
   Si      0.8836732677      0.8836732677      0.3755516126
   Si      0.7508020597      0.5014241998      0.0008020597
   Si      0.8762161610      0.6269953097      0.1262161610
   Si      0.7547207356      0.7547207356      0.2517234006
   Si      0.6252905041      0.8752555874      0.6254368694
   Si      0.5000098624      0.5000098624      0.7500098624
   Si      0.6252079470      0.6252079470      0.8752079470
   Si      0.4998356367      0.7504606495      0.5009856070
   Si      0.8762161610      0.8762161610      0.8769953097
   Si      0.7504606495      0.4998356367      0.5009856070
   Si      0.8752555874      0.6252905041      0.6254368694
   Si      0.7508020597      0.7508020597      0.7514241998
LAST_IMAGE
ATOMIC_POSITIONS (crystal)
   Si      0.1252484598      0.3717118024      0.1282881976
   Si      0.0078218501      0.0078218501      0.2578218501
   Si      0.0001779346      0.2498220654      0.0004996755
   Si      0.3717118024      0.3717118024      0.3747515402
   Si      0.2498220654      0.0001779346      0.0004996755
   Si      0.3717118024      0.1252484598      0.1282881976
   Si      0.2421781499      0.2421781499      0.2578218501
   Si      0.1247515402      0.3717118024      0.6217118024
   Si      0.0001779346      0.0001779346      0.7495003245
   Si      0.1250000000      0.1250000000      0.8750000000
   Si      0.0078218501      0.2421781499      0.4921781499
   Si      0.3746246544      0.3746246544      0.8751452140
   Si      0.2421781499      0.0078218501      0.4921781499
   Si      0.3717118024      0.1247515402      0.6217118024
   Si      0.2498220654      0.2498220654      0.7495003245
   Si      0.1247515402      0.8782881976      0.1282881976
   Si      0.0001779346      0.4995003245      0.2501779346
   Si      0.1250000000      0.6250000000      0.3750000000
   Si     -0.0000662276      0.7510712986      0.0010712986
   Si      0.3717118024      0.8782881976      0.3752484598
   Si      0.2500662276      0.4989287014      0.0010712986
   Si      0.3746246544      0.6248547860      0.1253753456
   Si      0.2498220654      0.7504996755      0.2501779346
   Si      0.1252484598      0.8782881976      0.6217118024
   Si     -0.0000662276      0.4989287014      0.7489287014
   Si      0.1250000000      0.6250000000      0.8750000000
   Si      0.0001779346      0.7504996755      0.4998220654
   Si      0.3746246544      0.8753753456      0.8748547860
   Si      0.2498220654      0.4995003245      0.4998220654
   Si      0.3746246544      0.6251452140      0.6246246544
   Si      0.2500662276      0.7510712986      0.7489287014
   Si      0.6248547860      0.3746246544      0.1253753456
   Si      0.4995003245      0.0001779346      0.2501779346
   Si      0.6250000000      0.1250000000      0.3750000000
   Si      0.4989287014      0.2500662276      0.0010712986
   Si      0.8782881976      0.3717118024      0.3752484598
   Si      0.7510712986     -0.0000662276      0.0010712986
   Si      0.8782881976      0.1247515402      0.1282881976
   Si      0.7504996755      0.2498220654      0.2501779346